\ This file has been generated by DOcplex
\ ENCODING=ISO-8859-1
\Problem name: Orandom25742_6.lp

Minimize
 obj: - 32.000008343895 x0 - 16.000004171947 x1 - 8.000002085974 x2
      - 28.000008343895 x3 - 14.000004171947 x4 - 7.000002085974 x5 + [
      48.000004767940 x0^2 + 48.000004767940 x0*x1 + 24.000002383970 x0*x2
      + 32.000009535880 x0*x3 + 16.000004767940 x0*x4 + 8.000002383970 x0*x5
      + 12.000001191985 x1^2 + 12.000001191985 x1*x2 + 16.000004767940 x1*x3
      + 8.000002383970 x1*x4 + 4.000001191985 x1*x5 + 3.000000297996 x2^2
      + 8.000002383970 x2*x3 + 4.000001191985 x2*x4 + 2.000000595992 x2*x5
      + 16.000004767940 x3^2 + 16.000004767940 x3*x4 + 8.000002383970 x3*x5
      + 4.000001191985 x4^2 + 4.000001191985 x4*x5 + 1.000000297996 x5^2 ]/2 +
      24.500007300908
Subject To

Bounds
 0 <= x0 <= 1
 0 <= x1 <= 1
 0 <= x2 <= 1
 0 <= x3 <= 1
 0 <= x4 <= 1
 0 <= x5 <= 1

Binaries
 x0 x1 x2 x3 x4 x5
End
